
******************************************************************************
This program contains Ipopt, a library for large-scale nonlinear optimization.
 Ipopt is released as open source code under the Eclipse Public License (EPL).
         For more information visit http://projects.coin-or.org/Ipopt
******************************************************************************

This is Ipopt version 3.12.6, running with linear solver ma57.

Number of nonzeros in equality constraint Jacobian...:        0
Number of nonzeros in inequality constraint Jacobian.:        0
Number of nonzeros in Lagrangian Hessian.............:       36

Total number of variables............................:        8
                     variables with only lower bounds:        1
                variables with lower and upper bounds:        0
                     variables with only upper bounds:        0
Total number of equality constraints.................:        0
Total number of inequality constraints...............:        0
        inequality constraints with only lower bounds:        0
   inequality constraints with lower and upper bounds:        0
        inequality constraints with only upper bounds:        0

iter    objective    inf_pr   inf_du lg(mu)  ||d||  lg(rg) alpha_du alpha_pr  ls
   0  6.4524604e+03 0.00e+00 1.00e+02  -1.0 0.00e+00    -  0.00e+00 0.00e+00   0
   1  2.3562313e+02 0.00e+00 8.65e-01  -1.0 8.67e-01   0.0 1.00e+00 1.00e+00f  1
   2  1.8377792e+02 0.00e+00 1.55e-01  -1.7 4.62e-01  -0.5 1.00e+00 1.00e+00f  1
   3  1.3307891e+02 0.00e+00 1.13e-01  -2.5 9.96e-01  -1.0 6.92e-01 1.00e+00f  1
   4  4.9937392e+01 0.00e+00 9.25e-02  -2.5 2.96e+00  -1.4 1.00e+00 1.00e+00f  1
   5  1.0731407e+01 0.00e+00 3.76e-02  -2.5 3.00e+00  -1.9 1.00e+00 1.00e+00f  1
   6  3.2301488e+00 0.00e+00 8.30e-03  -2.5 1.91e+00  -2.4 1.00e+00 1.00e+00f  1
   7  2.6634979e-02 0.00e+00 1.87e-03  -3.8 1.58e+01    -  1.00e+00 1.00e+00f  1
   8  2.4108648e-02 0.00e+00 3.50e-05  -3.8 2.53e-02  -2.9 1.00e+00 1.00e+00f  1
   9  2.4000169e-02 0.00e+00 8.26e-06  -5.7 1.79e-02  -3.3 1.00e+00 1.00e+00f  1
iter    objective    inf_pr   inf_du lg(mu)  ||d||  lg(rg) alpha_du alpha_pr  ls
  10  2.3869284e-02 0.00e+00 8.47e-06  -8.6 4.45e-02  -3.8 9.98e-01 1.00e+00f  1
  11  2.3527715e-02 0.00e+00 2.18e-05  -8.6 1.26e-01  -4.3 1.00e+00 1.00e+00f  1
  12  2.2815913e-02 0.00e+00 1.40e-04  -8.6 3.16e-01  -4.8 1.00e+00 1.00e+00f  1
  13  2.2111210e-02 0.00e+00 6.80e-04  -8.6 1.78e+01    -  1.00e+00 1.25e-01f  4
  14  2.0898383e-02 0.00e+00 4.72e-04  -8.6 1.29e+00    -  1.00e+00 1.00e+00f  1
  15  1.9956759e-02 0.00e+00 9.53e-04  -8.6 3.01e+00    -  1.00e+00 1.00e+00f  1
  16  1.8375770e-02 0.00e+00 2.62e-04  -8.6 1.32e+00    -  1.00e+00 1.00e+00f  1
  17  1.7598887e-02 0.00e+00 1.12e-03  -8.6 6.21e+00    -  1.00e+00 5.00e-01f  2
  18  1.5575151e-02 0.00e+00 2.32e-04  -8.6 1.17e+00    -  1.00e+00 1.00e+00f  1
  19  1.5198472e-02 0.00e+00 1.54e-03  -8.6 7.57e+00    -  1.00e+00 5.00e-01f  2
iter    objective    inf_pr   inf_du lg(mu)  ||d||  lg(rg) alpha_du alpha_pr  ls
  20  1.2065814e-02 0.00e+00 1.39e-04  -8.6 6.80e-01    -  1.00e+00 1.00e+00f  1
  21  1.0799841e-02 0.00e+00 1.08e-03  -8.6 1.27e+01    -  1.00e+00 2.50e-01f  3
  22  8.2764349e-03 0.00e+00 2.76e-04  -8.6 1.35e+00    -  1.00e+00 1.00e+00f  1
  23  6.7716963e-03 0.00e+00 8.23e-04  -8.6 5.26e+00    -  1.00e+00 5.00e-01f  2
  24  4.5341310e-03 0.00e+00 3.24e-04  -8.6 1.50e+00    -  1.00e+00 1.00e+00f  1
  25  3.3993469e-03 0.00e+00 9.85e-04  -8.6 3.18e+00    -  1.00e+00 1.00e+00f  1
  26  1.3481758e-03 0.00e+00 7.85e-05  -8.6 1.07e+00    -  1.00e+00 1.00e+00f  1
  27  1.1813010e-03 0.00e+00 7.13e-04  -8.6 2.93e+00    -  1.00e+00 1.00e+00f  1
  28  2.4067017e-04 0.00e+00 3.61e-06  -8.6 5.65e-01    -  1.00e+00 1.00e+00f  1
  29  2.2422242e-04 0.00e+00 1.14e-05  -8.6 5.12e-01    -  1.00e+00 1.00e+00f  1
iter    objective    inf_pr   inf_du lg(mu)  ||d||  lg(rg) alpha_du alpha_pr  ls
  30  2.2395412e-04 0.00e+00 3.77e-09  -8.6 1.32e-02    -  1.00e+00 1.00e+00f  1

Number of Iterations....: 30

                                   (scaled)                 (unscaled)
Objective...............:   1.4828592791989685e-06    2.2395411843193039e-04
Dual infeasibility......:   3.7725783983020328e-09    5.6976712575415589e-07
Constraint violation....:   0.0000000000000000e+00    0.0000000000000000e+00
Complementarity.........:   2.5059026848656262e-09    3.7846290240598523e-07
Overall NLP error.......:   3.7725783983020328e-09    5.6976712575415589e-07


Number of objective function evaluations             = 59
Number of objective gradient evaluations             = 31
Number of equality constraint evaluations            = 0
Number of inequality constraint evaluations          = 0
Number of equality constraint Jacobian evaluations   = 0
Number of inequality constraint Jacobian evaluations = 0
Number of Lagrangian Hessian evaluations             = 30
Total CPU secs in IPOPT (w/o function evaluations)   =      0.003
Total CPU secs in NLP function evaluations           =      0.000

EXIT: Optimal Solution Found.

 ** SUBROUTINE CUTEST_csetup: Warning. The problem has no general constraints. 
 ** Other tools may be preferable ** 

************************ CUTEst statistics ************************


 Package used            :  IPOPT
 Problem                 :  PALMER6E  
 # variables             =               8
 # constraints           =               0
 # objective functions   =        0.9100000E+02
 # objective gradients   =        0.3200000E+02
 # objective Hessians    =        0.3100000E+02
 # Hessian-vector prdct  =        0.0000000E+00
 # constraints functions =        0.0000000E+00
 # constraints gradients =        0.0000000E+00
 # constraints Hessians  =        0.0000000E+00
 Exit code               =               0
 Final f                 =   0.2239541E-03
 Set up time             =            0.00 seconds
 Solve time              =            0.04 seconds


******************************************************************

System Time =       0.0109999999 s.
